Minimize
 obj: 0 X_0_1
Subject To
 out_0:
  + 1 X_0_1 + 1 X_0_2 + 1 X_0_3 + 1 X_0_4
  = 1
 in_0:
  + 1 X_1_0 + 1 X_2_0 + 1 X_3_0 + 1 X_4_0
  = 1
 out_1:
  + 1 X_1_0 + 1 X_1_2 + 1 X_1_3 + 1 X_1_4
  = 1
 in_1:
  + 1 X_0_1 + 1 X_2_1 + 1 X_3_1 + 1 X_4_1
  = 1
 out_2:
  + 1 X_2_0 + 1 X_2_1 + 1 X_2_3 + 1 X_2_4
  = 1
 in_2:
  + 1 X_0_2 + 1 X_1_2 + 1 X_3_2 + 1 X_4_2
  = 1
 out_3:
  + 1 X_3_0 + 1 X_3_1 + 1 X_3_2 + 1 X_3_4
  = 1
 in_3:
  + 1 X_0_3 + 1 X_1_3 + 1 X_2_3 + 1 X_4_3
  = 1
 out_4:
  + 1 X_4_0 + 1 X_4_1 + 1 X_4_2 + 1 X_4_3
  = 1
 in_4:
  + 1 X_0_4 + 1 X_1_4 + 1 X_2_4 + 1 X_3_4
  = 1
 mtz_1_2:
  + 1 U1 - 1 U2 + 4 X_1_2
  <= 3
 mtz_1_3:
  + 1 U1 - 1 U3 + 4 X_1_3
  <= 3
 mtz_1_4:
  + 1 U1 - 1 U4 + 4 X_1_4
  <= 3
 mtz_2_1:
  + 1 U2 - 1 U1 + 4 X_2_1
  <= 3
 mtz_2_3:
  + 1 U2 - 1 U3 + 4 X_2_3
  <= 3
 mtz_2_4:
  + 1 U2 - 1 U4 + 4 X_2_4
  <= 3
 mtz_3_1:
  + 1 U3 - 1 U1 + 4 X_3_1
  <= 3
 mtz_3_2:
  + 1 U3 - 1 U2 + 4 X_3_2
  <= 3
 mtz_3_4:
  + 1 U3 - 1 U4 + 4 X_3_4
  <= 3
 mtz_4_1:
  + 1 U4 - 1 U1 + 4 X_4_1
  <= 3
 mtz_4_2:
  + 1 U4 - 1 U2 + 4 X_4_2
  <= 3
 mtz_4_3:
  + 1 U4 - 1 U3 + 4 X_4_3
  <= 3
 obj1:
  + 904 X_0_1 + 873 X_0_2 + 973 X_0_3 + 686 X_0_4 + 904 X_1_0 + 962 X_1_2 + 84 X_1_3 + 405 X_1_4
  + 873 X_2_0 + 962 X_2_1 + 961 X_2_3 + 567 X_2_4 + 973 X_3_0 + 84 X_3_1 + 961 X_3_2 + 423 X_3_4
  + 686 X_4_0 + 405 X_4_1 + 567 X_4_2 + 423 X_4_3
  <= 1
 obj2:
  + 33 X_0_1 + 512 X_0_2 + 262 X_0_3 + 482 X_0_4 + 33 X_1_0 + 545 X_1_2 + 264 X_1_3 + 465 X_1_4
  + 512 X_2_0 + 545 X_2_1 + 555 X_2_3 + 888 X_2_4 + 262 X_3_0 + 264 X_3_1 + 555 X_3_2 + 718 X_3_4
  + 482 X_4_0 + 465 X_4_1 + 888 X_4_2 + 718 X_4_3
  <= 2
 obj3:
  + 871 X_0_1 + 787 X_0_2 + 172 X_0_3 + 841 X_0_4 + 871 X_1_0 + 95 X_1_2 + 703 X_1_3 + 729 X_1_4
  + 787 X_2_0 + 95 X_2_1 + 622 X_2_3 + 733 X_2_4 + 172 X_3_0 + 703 X_3_1 + 622 X_3_2 + 715 X_3_4
  + 841 X_4_0 + 729 X_4_1 + 733 X_4_2 + 715 X_4_3
  <= 3
Bounds
 1 <= U1 <= 4
 1 <= U2 <= 4
 1 <= U3 <= 4
 1 <= U4 <= 4
Binary
 X_0_1
 X_0_2
 X_0_3
 X_0_4
 X_1_0
 X_1_2
 X_1_3
 X_1_4
 X_2_0
 X_2_1
 X_2_3
 X_2_4
 X_3_0
 X_3_1
 X_3_2
 X_3_4
 X_4_0
 X_4_1
 X_4_2
 X_4_3
End
